NAME: map6_72
TYPE: TSP
COMMENT: autogenerated using a wonderful map creator
DIMENSION: 96
EDGE_WEIGHT_TYPE: EUC_2D
NODE_COORD_SECTION
1 4.0 2.0
2 3.0 2.0
3 4.0 5.0
4 3.0 5.0
5 4.0 8.0
6 3.0 8.0
7 79.0 2.0
8 80.0 2.0
9 79.0 5.0
10 80.0 5.0
11 79.0 8.0
12 80.0 8.0
13 2.0 2.0
14 1.0 2.0
15 81.0 5.0
16 82.0 5.0
17 2.0 8.0
18 1.0 8.0
19 81.0 2.0
20 82.0 2.0
21 2.0 5.0
22 1.0 5.0
23 81.0 8.0
24 82.0 8.0
25 79.0 3.0
26 80.0 3.0
27 79.0 6.0
28 80.0 6.0
29 79.0 9.0
30 80.0 9.0
31 4.0 3.0
32 3.0 3.0
33 4.0 6.0
34 3.0 6.0
35 4.0 9.0
36 3.0 9.0
37 81.0 3.0
38 82.0 3.0
39 2.0 6.0
40 1.0 6.0
41 81.0 9.0
42 82.0 9.0
43 2.0 3.0
44 1.0 3.0
45 81.0 6.0
46 82.0 6.0
47 2.0 9.0
48 1.0 9.0
49 64.0 5.0
50 55.0 2.0
51 55.0 8.0
52 14.0 4.0
53 14.0 7.0
54 36.0 7.0
55 75.0 2.0
56 9.0 8.0
57 11.0 5.0
58 35.0 2.0
59 11.0 8.0
60 33.0 8.0
61 35.0 5.0
62 24.0 5.0
63 48.0 2.0
64 48.0 8.0
65 24.0 8.0
66 46.0 8.0
67 57.0 8.0
68 26.0 2.0
69 72.0 2.0
70 72.0 8.0
71 26.0 5.0
72 25.0 4.0
73 70.0 2.0
74 47.0 6.0
75 69.0 6.0
76 14.0 3.0
77 58.0 3.0
78 37.0 8.0
79 17.0 5.0
80 50.0 5.0
81 41.0 2.0
82 28.0 8.0
83 50.0 8.0
84 10.0 2.0
85 32.0 2.0
86 65.0 2.0
87 8.0 8.0
88 10.0 5.0
89 29.0 8.0
90 65.0 5.0
91 25.0 3.0
92 10.0 8.0
93 30.0 8.0
94 41.0 8.0
95 57.0 5.0
96 12.0 5.0
97 14.0 2.0
98 47.0 2.0
99 67.0 5.0
100 23.0 5.0
101 54.0 8.0
102 56.0 5.0
103 45.0 5.0
104 27.0 8.0
105 14.0 8.0
106 36.0 8.0
107 27.0 5.0
108 51.0 2.0
109 51.0 8.0
110 62.0 2.0
111 16.0 2.0
112 49.0 2.0
113 25.0 5.0
114 71.0 5.0
115 73.0 2.0
116 16.0 8.0
117 38.0 8.0
118 71.0 8.0
119 64.0 2.0
120 40.0 8.0
START_DEPOT_SECTION
1
2
3
4
5
6
7
8
9
10
11
12
13
14
15
16
17
18
19
20
21
22
23
24
-1
END_DEPOT_SECTION
25
26
27
28
29
30
31
32
33
34
35
36
37
38
39
40
41
42
43
44
45
46
47
48
-1
EOF
